50
    36    49    75    52    44    18    14    71    65    13    93    58    64    11    13    89    99     7    10     2    16    13    66     5    52    53     1    66    36    69    76    25    87    18    92    82    15    74    91     6    18    24    58    31    89    72    14    56     8    38
     6     3     2     3    10     2     7     5     2     2     1     7    10     1    10     3     9    10     5     8     1     5     7     7     5     7    10     6     8     2     2     7     4     9     1     4     4     5     8     3     6     9     5     4     6     4     8     2     5    10
     0   184   371  1148   397   103   583     0  1235     0   113   874   798  1035  1011   235   776   585     0  1193    60   283   914   199   150   907   260   618   751     0     0   848     0   258   471  1177     0  1279     0   833  1019   119   221  1271     0   192  1047     0   286   581
